c 100_4_checker.cnf
c
c field = 100
c formula set type = 4_checker
c
p cnf 5 80
190 
192 
194 
196 
-188 
191 
193 
195 
197 
-189 
190 
192 
194 
196 
-200 
191 
193 
195 
197 
-201 
192 
194 
196 
200 
-190 
193 
195 
197 
201 
-191 
192 
194 
196 
200 
-202 
193 
195 
197 
201 
-203 
194 
196 
200 
202 
-192 
195 
197 
201 
203 
-193 
194 
196 
200 
202 
-204 
195 
197 
201 
203 
-205 
196 
200 
202 
204 
-194 
197 
201 
203 
205 
-195 
196 
200 
202 
204 
-206 
197 
201 
203 
205 
-207 
200 
202 
204 
206 
-196 
201 
203 
205 
207 
-197 
200 
202 
204 
206 
-208 
201 
203 
205 
207 
-209 
78 
108 
138 
168 
-48 
79 
109 
139 
169 
-49 
78 
108 
138 
168 
-228 
79 
109 
139 
169 
-229 
108 
138 
168 
228 
-78 
109 
139 
169 
229 
-79 
108 
138 
168 
228 
-258 
109 
139 
169 
229 
-259 
138 
168 
228 
258 
-108 
139 
169 
229 
259 
-109 
138 
168 
228 
258 
-288 
139 
169 
229 
259 
-289 
168 
228 
258 
288 
-138 
169 
229 
259 
289 
-139 
168 
228 
258 
288 
-318 
169 
229 
259 
289 
-319 
228 
258 
288 
318 
-168 
229 
259 
289 
319 
-169 
228 
258 
288 
318 
-348 
229 
259 
289 
319 
-349 
70 
102 
134 
166 
-38 
71 
103 
135 
167 
-39 
70 
102 
134 
166 
-230 
71 
103 
135 
167 
-231 
102 
134 
166 
230 
-70 
103 
135 
167 
231 
-71 
102 
134 
166 
230 
-262 
103 
135 
167 
231 
-263 
134 
166 
230 
262 
-102 
135 
167 
231 
263 
-103 
134 
166 
230 
262 
-294 
135 
167 
231 
263 
-295 
166 
230 
262 
294 
-134 
167 
231 
263 
295 
-135 
166 
230 
262 
294 
-326 
167 
231 
263 
295 
-327 
230 
262 
294 
326 
-166 
231 
263 
295 
327 
-167 
230 
262 
294 
326 
-358 
231 
263 
295 
327 
-359 
86 
114 
142 
170 
-58 
87 
115 
143 
171 
-59 
86 
114 
142 
170 
-226 
87 
115 
143 
171 
-227 
114 
142 
170 
226 
-86 
115 
143 
171 
227 
-87 
114 
142 
170 
226 
-254 
115 
143 
171 
227 
-255 
142 
170 
226 
254 
-114 
143 
171 
227 
255 
-115 
142 
170 
226 
254 
-282 
143 
171 
227 
255 
-283 
170 
226 
254 
282 
-142 
171 
227 
255 
283 
-143 
170 
226 
254 
282 
-310 
171 
227 
255 
283 
-311 
226 
254 
282 
310 
-170 
227 
255 
283 
311 
-171 
226 
254 
282 
310 
-338 
227 
255 
283 
311 
-339 
